c FILE /home/rafael/Documents/HappySet/MIHS/inputs/happygen/output/graph_d_regular_k4_p0.1_v50_20241127_082608.txt
c SOURCE This is a d-regular graph formed for the happy graph colouring problem.
c DESCRIPTION It was generated using the problem generator of Rhyd Lewis
c
c GRAPH STATS
c Seed                             = 931361955
c Number of Nodes                  = 50
c Number of colours k              = 4
c Number of pre-assignments        = 5
c Degree of all vertices           = 6
c Density                          = 0.122449
c 
c The degrees of nodes 1 to 50, respectively, are as follows 
c [6, 6, 6, 6, 6, 6, 6, 6, 6, 6, 6, 6, 6, 6, 6, 6, 6, 6, 6, 6, 6, 6, 6, 6, 6, 6, 
c  6, 6, 6, 6, 6, 6, 6, 6, 6, 6, 6, 6, 6, 6, 6, 6, 6, 6, 6, 6, 6, 6, 6, 6] 
c  
p edge 50 150 4
e 1 3
e 1 10
e 1 19
e 1 27
e 1 42
e 1 45
e 2 14
e 2 20
e 2 32
e 2 38
e 2 41
e 2 42
e 3 17
e 3 21
e 3 25
e 3 31
e 3 50
e 4 6
e 4 19
e 4 24
e 4 28
e 4 36
e 4 44
e 5 9
e 5 10
e 5 13
e 5 21
e 5 38
e 5 47
e 6 12
e 6 13
e 6 20
e 6 30
e 6 46
e 7 15
e 7 21
e 7 31
e 7 38
e 7 41
e 7 49
e 8 10
e 8 13
e 8 15
e 8 21
e 8 30
e 8 49
e 9 24
e 9 29
e 9 31
e 9 37
e 9 50
e 10 12
e 10 30
e 10 39
e 11 22
e 11 23
e 11 35
e 11 44
e 11 48
e 11 49
e 12 13
e 12 28
e 12 30
e 12 40
e 13 16
e 13 39
e 14 26
e 14 31
e 14 37
e 14 40
e 14 45
e 15 36
e 15 40
e 15 43
e 15 45
e 16 17
e 16 20
e 16 22
e 16 39
e 16 43
e 17 18
e 17 24
e 17 26
e 17 39
e 18 20
e 18 25
e 18 27
e 18 37
e 18 44
e 19 29
e 19 33
e 19 46
e 19 48
e 20 35
e 20 44
e 21 33
e 21 42
e 22 25
e 22 28
e 22 47
e 22 50
e 23 29
e 23 30
e 23 32
e 23 39
e 23 48
e 24 29
e 24 32
e 24 45
e 25 43
e 25 47
e 25 49
e 26 27
e 26 33
e 26 37
e 26 50
e 27 32
e 27 36
e 27 49
e 28 29
e 28 31
e 28 42
e 29 47
e 30 34
e 31 47
e 32 38
e 32 39
e 33 34
e 33 35
e 33 44
e 34 36
e 34 40
e 34 47
e 34 48
e 35 36
e 35 43
e 35 46
e 36 41
e 37 41
e 37 45
e 38 41
e 38 42
e 40 48
e 40 50
e 41 46
e 42 48
e 43 44
e 43 46
e 45 46
e 49 50
n 9 4
n 18 3
n 23 1
n 33 1
n 40 2
